letting n =  10
letting blocks =  [[1, 3], [1, 5], [1, 6], [1, 8], [2, 1], [2, 4], [2, 6], [2, 9], [3, 1], [3, 2], [3, 8], [4, 3], [4, 10], [5, 2], [5, 3], [5, 6], [5, 7], [5, 9], [6, 1], [6, 2], [6, 8], [6, 10], [7, 2], [7, 7], [7, 9], [8, 2], [8, 5], [8, 7], [9, 1], [9, 2], [9, 4], [9, 6], [9, 7], [9, 8], [10, 3], [10, 9]]
